(declare-fun j () Int)

(assert (forall ((N Int) (i Int))
  (=>
    (and
      (<= (- (+ N 1) 1) 0)
      (<= (- N 1) i)
      (not (or (exists ((k_1 Int)(k_0 Int)(j_1 Int)(j_0 Int)) (and (<= j_0 (- N 1)) (<= j_1 (- N 1)) (<= (+ i 2) j_1) (<= k_0 (- j 1)) (<= (+ i 1) j_0) (or (and (= i (+ i 1)) (= k_0 j_1)) (and (= i (+ i 1)) (= j_0 j_1)) (and (= j_0 j_1) (= (+ k_0 1) (+ i 1))) (and (= j_0 j_1) (= i (+ k_1 1))) (and (= i (+ i 1)) (= j_0 k_1))) (<= k_1 (- j 1)) (<= (+ i 1) k_0) (<= (+ i 2) k_1))) (exists ((k_0 Int)(j_1 Int)(j_0 Int)) (and (<= j_0 (- N 1)) (<= 1 j_1) (<= j_1 (- N 1)) (<= (+ i 2) j_1) (<= k_0 (- j 1)) (<= (+ i 1) j_0) (<= (- j_1 1) (+ i 1)) (<= (+ i 1) k_0) (< (+ i 2) N) (or (and (= i (+ i 1)) (= k_0 j_1)) (and (= j_0 j_1) (= (+ k_0 1) (+ i 1))) (and (= j_0 (- j_1 1)) (= i (+ i 2))) (and (= i (+ i 1)) (= j_0 j_1))))) (exists ((k_0 Int)(j_1 Int)(j_0 Int)) (and (<= j_0 (- N 1)) (<= 1 j_1) (< (+ i 1) (- j_1 1)) (<= j_1 (- N 1)) (<= (+ i 2) j_1) (<= k_0 (- j 1)) (<= (+ i 1) j_0) (<= (+ i 1) k_0) (< (+ i 2) N) (or (and (= i (+ i 1)) (= k_0 j_1)) (and (= j_0 j_1) (= (+ k_0 1) (+ i 1))) (and (= j_0 (- j_1 1)) (= i (+ i 2))) (and (= i (+ i 1)) (= j_0 j_1))))) (exists ((k_0 Int)(j_1 Int)(j_0 Int)) (and (or (and (= j_0 j_1) (= i (+ i 2))) (and (= i (+ i 1)) (= k_0 j_1)) (and (= i (+ i 1)) (= j_0 j_1)) (and (= j_0 j_1) (= (+ k_0 1) (+ i 1)))) (<= j_0 (- N 1)) (<= j_1 (- N 1)) (<= (+ i 2) j_1) (<= k_0 (- j 1)) (<= (+ i 1) j_0) (<= (+ i 1) k_0) (< (+ i 2) N))) (exists ((k_0 Int)(j_1 Int)(j_0 Int)) (and (<= j_0 (- N 1)) (<= 1 j_1) (<= j_1 (- N 1)) (<= (+ i 2) j_1) (<= k_0 (- j 1)) (<= (+ i 1) j_0) (or (and (= i (+ i 1)) (= k_0 j_1)) (and (= i (+ i 1)) (= j_0 j_1)) (and (= j_0 j_1) (= (+ k_0 1) (+ i 1))) (and (= i (+ i 1)) (= j_0 (- j_1 1)))) (<= (+ i 1) k_0))) (exists ((k_1 Int)(j_1 Int)(j_0 Int)) (and (<= j_0 (- N 1)) (<= 1 j_0) (<= j_1 (- N 1)) (<= (+ i 2) j_1) (<= (- j_0 1) i) (<= (+ i 1) j_0) (< (+ i 1) N) (<= k_1 (- j 1)) (or (and (= i (+ i 1)) (= j_0 k_1)) (= (- j_0 1) j_1) (and (= i (+ i 1)) (= j_0 j_1)) (and (= j_0 j_1) (= i (+ k_1 1)))) (<= (+ i 2) k_1))) (exists ((j_1 Int)(j_0 Int)) (and (<= j_0 (- N 1)) (<= 1 j_1) (<= 1 j_0) (<= j_1 (- N 1)) (<= (+ i 2) j_1) (<= (- j_0 1) i) (<= (+ i 1) j_0) (< (+ i 1) N) (<= (- j_1 1) (+ i 1)) (or (= (- j_0 1) j_1) (and (= i (+ i 1)) (= j_0 j_1)) (and (= j_0 (- j_1 1)) (= i (+ i 2)))) (< (+ i 2) N))) (exists ((j_1 Int)(j_0 Int)) (and (<= j_0 (- N 1)) (<= 1 j_1) (<= 1 j_0) (< (+ i 1) (- j_1 1)) (<= j_1 (- N 1)) (<= (+ i 2) j_1) (<= (- j_0 1) i) (<= (+ i 1) j_0) (< (+ i 1) N) (or (= (- j_0 1) j_1) (and (= i (+ i 1)) (= j_0 j_1)) (and (= j_0 (- j_1 1)) (= i (+ i 2)))) (< (+ i 2) N))) (exists ((j_1 Int)(j_0 Int)) (and (<= j_0 (- N 1)) (<= 1 j_0) (<= j_1 (- N 1)) (<= (+ i 2) j_1) (<= (- j_0 1) i) (or (and (= j_0 j_1) (= i (+ i 2))) (= (- j_0 1) j_1) (and (= i (+ i 1)) (= j_0 j_1))) (<= (+ i 1) j_0) (< (+ i 1) N) (< (+ i 2) N))) (exists ((j_1 Int)(j_0 Int)) (and (or (= (- j_0 1) j_1) (and (= i (+ i 1)) (= j_0 j_1)) (and (= i (+ i 1)) (= j_0 (- j_1 1)))) (<= j_0 (- N 1)) (<= 1 j_1) (<= 1 j_0) (<= j_1 (- N 1)) (<= (+ i 2) j_1) (<= (- j_0 1) i) (<= (+ i 1) j_0) (< (+ i 1) N))) (exists ((k_1 Int)(j_1 Int)(j_0 Int)) (and (< i (- j_0 1)) (<= j_0 (- N 1)) (<= 1 j_0) (<= j_1 (- N 1)) (<= (+ i 2) j_1) (<= (+ i 1) j_0) (< (+ i 1) N) (<= k_1 (- j 1)) (or (and (= i (+ i 1)) (= j_0 k_1)) (= (- j_0 1) j_1) (and (= i (+ i 1)) (= j_0 j_1)) (and (= j_0 j_1) (= i (+ k_1 1)))) (<= (+ i 2) k_1))) (exists ((j_1 Int)(j_0 Int)) (and (< i (- j_0 1)) (<= j_0 (- N 1)) (<= 1 j_1) (<= 1 j_0) (<= j_1 (- N 1)) (<= (+ i 2) j_1) (<= (+ i 1) j_0) (< (+ i 1) N) (<= (- j_1 1) (+ i 1)) (or (= (- j_0 1) j_1) (and (= i (+ i 1)) (= j_0 j_1)) (and (= j_0 (- j_1 1)) (= i (+ i 2)))) (< (+ i 2) N))) (exists ((j_1 Int)(j_0 Int)) (and (< i (- j_0 1)) (<= j_0 (- N 1)) (<= 1 j_1) (<= 1 j_0) (< (+ i 1) (- j_1 1)) (<= j_1 (- N 1)) (<= (+ i 2) j_1) (<= (+ i 1) j_0) (< (+ i 1) N) (or (= (- j_0 1) j_1) (and (= i (+ i 1)) (= j_0 j_1)) (and (= j_0 (- j_1 1)) (= i (+ i 2)))) (< (+ i 2) N))) (exists ((j_1 Int)(j_0 Int)) (and (< i (- j_0 1)) (<= j_0 (- N 1)) (<= 1 j_0) (<= j_1 (- N 1)) (<= (+ i 2) j_1) (or (and (= j_0 j_1) (= i (+ i 2))) (= (- j_0 1) j_1) (and (= i (+ i 1)) (= j_0 j_1))) (<= (+ i 1) j_0) (< (+ i 1) N) (< (+ i 2) N))) (exists ((j_1 Int)(j_0 Int)) (and (<= j_0 (- N 1)) (<= 1 j_1) (<= j_1 (- N 1)) (<= (+ i 2) j_1) (<= (+ i 1) j_0) (< (+ i 1) N) (<= (- j_1 1) (+ i 1)) (or (= j_0 j_1) (and (= i (+ i 1)) (= j_0 j_1)) (and (= j_0 (- j_1 1)) (= i (+ i 2)))) (< (+ i 2) N))) (exists ((j_1 Int)(j_0 Int)) (and (<= j_0 (- N 1)) (<= 1 j_1) (< (+ i 1) (- j_1 1)) (<= j_1 (- N 1)) (<= (+ i 2) j_1) (<= (+ i 1) j_0) (< (+ i 1) N) (or (= j_0 j_1) (and (= i (+ i 1)) (= j_0 j_1)) (and (= j_0 (- j_1 1)) (= i (+ i 2)))) (< (+ i 2) N))) (exists ((j_1 Int)(j_0 Int)) (and (<= j_0 (- N 1)) (<= j_1 (- N 1)) (<= (+ i 2) j_1) (or (and (= j_0 j_1) (= i (+ i 2))) (= j_0 j_1) (and (= i (+ i 1)) (= j_0 j_1))) (<= (+ i 1) j_0) (< (+ i 1) N) (< (+ i 2) N))) (exists ((j_1 Int)(j_0 Int)) (and (<= j_0 (- N 1)) (<= 1 j_1) (or (= j_0 j_1) (and (= i (+ i 1)) (= j_0 j_1)) (and (= i (+ i 1)) (= j_0 (- j_1 1)))) (<= j_1 (- N 1)) (<= (+ i 2) j_1) (<= (+ i 1) j_0) (< (+ i 1) N))) (exists ((k_1 Int)(j_1 Int)(j_0 Int)) (and (<= j_0 (- N 1)) (<= 1 j_0) (<= j_1 (- N 1)) (<= (+ i 2) j_1) (<= (+ i 1) j_0) (<= k_1 (- j 1)) (or (and (= i (+ i 1)) (= j_0 k_1)) (and (= i (+ i 1)) (= j_0 j_1)) (and (= i (+ i 1)) (= (- j_0 1) j_1)) (and (= j_0 j_1) (= i (+ k_1 1)))) (<= (+ i 2) k_1))) (exists ((j_1 Int)(j_0 Int)) (and (<= j_0 (- N 1)) (<= 1 j_1) (<= 1 j_0) (or (and (= i (+ i 1)) (= j_0 j_1)) (and (= j_0 (- j_1 1)) (= i (+ i 2))) (and (= i (+ i 1)) (= (- j_0 1) j_1))) (<= j_1 (- N 1)) (<= (+ i 2) j_1) (<= (+ i 1) j_0) (<= (- j_1 1) (+ i 1)) (< (+ i 2) N))) (exists ((j_1 Int)(j_0 Int)) (and (<= j_0 (- N 1)) (<= 1 j_1) (<= 1 j_0) (or (and (= i (+ i 1)) (= j_0 j_1)) (and (= j_0 (- j_1 1)) (= i (+ i 2))) (and (= i (+ i 1)) (= (- j_0 1) j_1))) (< (+ i 1) (- j_1 1)) (<= j_1 (- N 1)) (<= (+ i 2) j_1) (<= (+ i 1) j_0) (< (+ i 2) N))) (exists ((j_1 Int)(j_0 Int)) (and (<= j_0 (- N 1)) (<= 1 j_0) (<= j_1 (- N 1)) (<= (+ i 2) j_1) (<= (+ i 1) j_0) (or (and (= j_0 j_1) (= i (+ i 2))) (and (= i (+ i 1)) (= j_0 j_1)) (and (= i (+ i 1)) (= (- j_0 1) j_1))) (< (+ i 2) N))) (exists ((j_1 Int)(j_0 Int)) (and (or (and (= i (+ i 1)) (= j_0 j_1)) (and (= i (+ i 1)) (= (- j_0 1) j_1)) (and (= i (+ i 1)) (= j_0 (- j_1 1)))) (<= j_0 (- N 1)) (<= 1 j_1) (<= 1 j_0) (<= j_1 (- N 1)) (<= (+ i 2) j_1) (<= (+ i 1) j_0))) (exists ((k_1 Int)(j_1 Int)(j_0 Int)) (and (<= j_0 (- N 1)) (<= j_1 (- N 1)) (<= (+ i 2) j_1) (<= (+ i 1) j_0) (< (+ i 1) N) (or (and (= i (+ i 1)) (= j_0 k_1)) (= j_0 j_1) (and (= i (+ i 1)) (= j_0 j_1)) (and (= j_0 j_1) (= i (+ k_1 1)))) (<= k_1 (- j 1)) (<= (+ i 2) k_1))) (exists ((j_1 Int)(j_0 Int)) (and (or (= (- j_0 1) j_1) (and (= i (+ i 1)) (= j_0 j_1)) (and (= i (+ i 1)) (= j_0 (- j_1 1)))) (<= j_0 (- N 1)) (<= 1 j_1) (<= 1 j_0) (< i (- j_0 1)) (<= j_1 (- N 1)) (<= (+ i 2) j_1) (<= (+ i 1) j_0) (< (+ i 1) N)))))
      (<= (+ i 1) 0)
    )
    false
  )
))

(check-sat)